p tw 40 98
0 1
0 25
0 20
1 2
1 3
1 8
1 27
2 26
2 35
2 37
2 28
3 20
3 33
3 16
3 15
3 7
4 5
4 18
4 22
4 31
4 8
5 23
5 14
5 13
5 22
5 9
6 7
6 17
6 19
7 24
7 34
7 33
7 28
7 13
7 25
7 14
7 10
7 37
7 23
8 9
8 10
8 29
9 27
10 23
10 33
11 12
11 20
11 38
11 34
12 24
12 36
12 22
12 32
13 14
13 25
13 33
13 34
14 15
14 30
14 18
14 23
14 22
15 16
15 27
15 32
16 36
16 21
17 27
17 37
17 22
18 19
18 23
19 38
19 30
20 37
21 22
21 31
21 29
22 23
22 26
22 37
22 24
22 38
22 32
23 24
23 38
23 33
27 30
27 38
28 29
29 39
29 35
31 32
31 33
34 37
35 38
36 38
36 37
